(declare-fun P1 (Int Int) Bool)
(declare-fun P2 (Int Int Int) Bool)
(declare-fun P3 (Int) Bool)
(declare-fun P4 (Int Int) Bool)
(assert (forall ((v1 Int) (v2 Int)) (=> (and (P4 v1 v2)) (P3 v1))))
(assert (forall ((v1 Int) (v2 Int)) (=> (and (= v2 0)) (P4 v2 v1))))
(assert (forall ((v1 Int) (v2 Int) (v3 Int)) (=> (and (P1 v1 v3) (P4 v3 v2)) (P2 v1 v3 v2))))
(assert (forall ((v1 Int) (v2 Int)) (=> (and (P3 v2)) (P1 v1 v2))))
(check-sat)
